500
750
525
524
523
523
521
521
520
520
520
520
516
516
515
513
511
511
511
509
508
507
507
507
506
505
505
504
503
502
501
501
501
500
499
498
497
497
496
496
495
495
495
495
490
490
490
489
488
488
487
486
486
485
483
482
482
481
480
479
479
478
478
478
477
475
475
474
474
473
472
469
469
465
465
464
464
464
463
463
463
461
460
460
460
460
458
458
457
456
456
456
455
454
453
453
452
451
450
449
448
447
447
446
446
445
444
444
442
440
440
440
439
438
438
437
437
437
434
433
433
433
432
432
432
430
430
428
428
428
427
426
426
426
425
424
424
423
423
422
422
419
418
418
418
417
415
415
415
413
413
410
410
408
407
405
404
404
404
404
401
400
398
397
397
396
395
394
394
394
393
392
391
390
390
390
390
390
389
388
388
386
385
385
384
384
383
383
382
381
380
380
380
379
377
377
375
375
375
375
374
374
373
372
371
371
371
370
370
369
369
369
368
368
367
366
364
363
363
363
363
363
362
362
361
360
359
358
357
357
357
356
356
355
355
354
353
350
348
348
348
347
347
346
345
342
342
342
340
340
338
338
336
336
335
334
334
333
333
332
331
330
330
329
328
327
327
327
321
321
320
319
318
318
318
317
317
315
315
314
314
314
313
313
312
311
311
311
310
309
309
309
308
308
308
307
307
307
307
306
306
304
302
299
299
298
298
297
297
297
294
294
294
293
293
292
291
290
290
287
285
285
284
283
283
281
280
280
280
278
278
277
277
277
275
274
273
272
271
271
270
270
270
269
269
268
265
265
264
264
264
264
263
263
262
261
260
260
259
259
259
254
253
252
252
250
250
249
248
247
246
245
245
245
244
243
243
243
243
242
241
239
238
238
238
235
235
234
233
233
233
231
231
231
229
228
227
227
227
224
224
224
223
221
220
220
220
220
220
220
219
219
218
218
217
216
215
213
213
211
210
208
207
206
203
203
202
202
202
200
199
199
199
198
198
198
197
196
196
196
195
193
192
191
191
191
190
190
189
189
187
187
186
186
186
185
183
182
179
179
179
178
178
178
178
178
178
174
173
173
173
172
172
169
168
168
168
167
166
165
165
164
162
162
161
161
161
160
159
158
158
157
156
156
156
154
152
152
151
151
151
150
